p cnf 60 30
-25 1 -24 0
-39 -59 47 0
-51 13 33 0
-22 -18 -48 0
-20 -39 -29 0
-39 11 -58 0
25 -38 27 0
20 5 44 0
-48 -45 39 0
-13 23 12 0
20 8 -54 0
-5 -52 -7 0
-39 6 -46 0
-55 6 -17 0
-16 15 1 0
33 47 -21 0
49 6 -10 0
-21 4 50 0
-54 37 -22 0
45 14 -21 0
50 8 -24 0
15 18 19 0
-42 -58 19 0
59 -52 -17 0
-3 -40 57 0
1 26 12 0
-43 -53 -46 0
56 26 -28 0
59 -57 -33 0
-1 48 38 0
